words_hard_train/2013.qaiger
aag 41 14 0 1 27
2
4
8
12
16
20
24
32
38
44
46
52
66
72
82
6 2 4
10 7 9
14 11 12
18 15 17
22 19 20
26 22 25
28 23 24
30 27 29
34 30 32
36 10 13
40 37 38
42 40 15
48 44 46
50 48 4
54 52 3
56 54 9
58 50 56
60 43 59
62 14 16
64 63 19
68 65 66
70 60 69
74 23 72
76 18 21
78 74 77
80 70 79
82 35 81
i0 2 y1[1]
i1 2 y1[2]
i2 2 y1[3]
i3 2 y1[4]
i4 2 y1[5]
i5 2 y1[6]
i6 2 y1[7]
i7 1 x2[7]
i8 1 x2[4]
i9 1 x2[1]
i10 1 x2[3]
i11 1 x2[2]
i12 1 x2[5]
i13 1 x2[6]
o0 bv[0]
c
simplified
  >=
    and
      subtract
        2 y1
        86
      1 x2
    abs
      14
