words_hard_train/2013.qaiger.qdimacs
p cnf 41 82
a 33 36 16 19 22 23 26 0
e 1 2 3 4 5 6 7 8 9 10 11 12 13 14 15 17 18 20 21 24 25 27 28 29 30 31 32 34 35 37 38 39 40 41 0
-1 -2 3 0
1 -3 0
2 -3 0
3 4 5 0
-3 -5 0
-4 -5 0
5 -6 7 0
-5 -7 0
6 -7 0
7 8 9 0
-7 -9 0
-8 -9 0
9 -10 11 0
-9 -11 0
10 -11 0
-11 12 13 0
11 -13 0
-12 -13 0
11 -12 14 0
-11 -14 0
12 -14 0
13 14 15 0
-13 -15 0
-14 -15 0
-15 -16 17 0
15 -17 0
16 -17 0
-5 6 18 0
5 -18 0
-6 -18 0
18 -19 20 0
-18 -20 0
19 -20 0
-20 7 21 0
20 -21 0
-7 -21 0
-22 -23 24 0
22 -24 0
23 -24 0
-24 -2 25 0
24 -25 0
2 -25 0
-26 1 27 0
26 -27 0
-1 -27 0
-27 4 28 0
27 -28 0
-4 -28 0
-25 -28 29 0
25 -29 0
28 -29 0
21 29 30 0
-21 -30 0
-29 -30 0
-7 -8 31 0
7 -31 0
8 -31 0
31 9 32 0
-31 -32 0
-9 -32 0
32 -33 34 0
-32 -34 0
33 -34 0
-30 34 35 0
30 -35 0
-34 -35 0
11 -36 37 0
-11 -37 0
36 -37 0
-9 10 38 0
9 -38 0
-10 -38 0
-37 38 39 0
37 -39 0
-38 -39 0
-35 39 40 0
35 -40 0
-39 -40 0
17 40 41 0
-17 -41 0
-40 -41 0
41 0
